Problem:    
Rows:       248
Columns:    89 (72 integer, 72 binary)
Non-zeros:  820
Status:     INTEGER OPTIMAL
Objective:  value = 17.579355 (MINimum)

   No.   Row name        Activity     Lower bound   Upper bound
------ ------------    ------------- ------------- -------------
     1 r.5                   517.579             0               
     2 r.6                   -497.41      -498.371               
     3 r.7                   17.5794             0               
     4 r.8                  -467.808      -492.585               
     5 r.9                   517.579             0               
     6 r.10                 -492.611       -498.16               
     7 r.11                  17.5794             0               
     8 r.12                 -2.50331      -491.867               
     9 r.13                  517.579             0               
    10 r.14                 -490.009      -497.398               
    11 r.15                  17.5794             0               
    12 r.16                  9.99103      -487.506               
    13 r.17                  517.579             0               
    14 r.18                 -494.451      -498.748               
    15 r.19                  17.5794             0               
    16 r.20                 -24.4811       -492.82               
    17 r.21                  517.579             0               
    18 r.22                 -496.206      -498.797               
    19 r.23                  17.5794             0               
    20 r.24                  -10.636      -493.919               
    21 r.25                  517.579             0               
    22 r.26                 -485.724      -496.762               
    23 r.27                  17.5794             0               
    24 r.28                  -10.636      -486.155               
    25 r.29                  517.579             0               
    26 r.30                 -482.421      -496.697               
    27 r.31                  17.5794             0               
    28 r.32                 -475.222      -493.783               
    29 r.33                  517.579             0               
    30 r.34                 -499.896      -499.896               
    31 r.35                  17.5794             0               
    32 r.36                   0.1043       -496.47               
    33 r.37                        1             1             = 
    34 r.38                        1             1             = 
    35 r.39                        1             1             = 
    36 r.40                        1             1             = 
    37 r.41                        1             1             = 
    38 r.42                        1             1             = 
    39 r.43                        1             1             = 
    40 r.44                        1             1             = 
    41 r.45                  4.79855       1.83988               
    42 r.46                 -4.79855      -498.371               
    43 r.47                  465.304       8.13265               
    44 r.48                 -465.304      -492.585               
    45 r.49                  7.40072       2.60217               
    46 r.50                 -7.40072      -498.371               
    47 r.51                  477.799       12.4943               
    48 r.52                 -477.799      -492.585               
    49 r.53                  2.95867       1.25219               
    50 r.54                 -2.95867      -498.371               
    51 r.55                  443.327       7.18046               
    52 r.56                 -443.327      -492.585               
    53 r.57                  1.20322       1.20322               
    54 r.58                 -1.20322      -498.371               
    55 r.59                  457.172       6.08127               
    56 r.60                 -457.172      -492.585               
    57 r.61                 -488.314      -489.518               
    58 r.62                 -13.2263      -471.666               
    59 r.63                 -17.9162      -489.518               
    60 r.64                  457.172      -471.666               
    61 r.65                   14.989       3.30333               
    62 r.66                  -14.989      -498.371               
    63 r.67                  492.585        6.2166               
    64 r.68                 -492.585      -492.585               
    65 r.69                 -497.514      -497.514               
    66 r.70                 -467.912      -490.871               
    67 r.71                 -497.514      -497.514               
    68 r.72                 -467.912      -490.871               
    69 r.73                  495.201       1.62901               
    70 r.74                 -495.201       -498.16               
    71 r.75                  34.6955       7.41456               
    72 r.76                 -34.6955      -491.867               
    73 r.77                  2.60217       2.60217               
    74 r.78                 -2.60217       -498.16               
    75 r.79                  12.4943       12.4943               
    76 r.80                 -12.4943      -491.867               
    77 r.81                   498.16       1.25219               
    78 r.82                  -498.16       -498.16               
    79 r.83                  478.022       7.18046               
    80 r.84                 -478.022      -491.867               
    81 r.85                  496.405       1.20322               
    82 r.86                 -496.405       -498.16               
    83 r.87                  491.867       6.08127               
    84 r.88                 -491.867      -491.867               
    85 r.89                  6.88717       3.23805               
    86 r.90                 -6.88717       -498.16               
    87 r.91                  491.867       13.8452               
    88 r.92                 -491.867      -491.867               
    89 r.93                  -489.81      -492.412               
    90 r.94                 -482.611      -485.213               
    91 r.95                 -479.917      -492.412               
    92 r.96                 -472.719      -485.213               
    93 r.97                 -492.715      -497.303               
    94 r.98                 -2.60761      -490.153               
    95 r.99                 -492.715      -497.303               
    96 r.100                -2.60761      -490.153               
    97 r.101                 492.599       1.62901               
    98 r.102                -492.599      -497.398               
    99 r.103                 22.2012       7.41456               
   100 r.104                -22.2012      -487.506               
   101 r.105                 497.398       1.83988               
   102 r.106                -497.398      -497.398               
   103 r.107                 487.506       8.13265               
   104 r.108                -487.506      -487.506               
   105 r.109                -495.558      -496.541               
   106 r.110                 4.44205      -485.792               
   107 r.111                -465.528      -496.541               
   108 r.112                 34.4721      -485.792               
   109 r.113                 493.803       1.20322               
   110 r.114                -493.803      -497.398               
   111 r.115                 479.373       6.08127               
   112 r.116                -479.373      -487.506               
   113 r.117                   4.285       3.23805               
   114 r.118                  -4.285      -497.398               
   115 r.119                 479.373       13.8452               
   116 r.120                -479.373      -487.506               
   117 r.121                -492.412      -492.412               
   118 r.122                -485.213      -485.213               
   119 r.123                -492.412      -492.412               
   120 r.124                -485.213      -485.213               
   121 r.125                -490.113      -496.541               
   122 r.126                 9.88673      -485.792               
   123 r.127                -490.113      -496.541               
   124 r.128                 9.88673      -485.792               
   125 r.129                 497.041       1.62901               
   126 r.130                -497.041      -498.748               
   127 r.131                 56.6733       7.41456               
   128 r.132                -56.6733       -492.82               
   129 r.133                 1.83988       1.83988               
   130 r.134                -1.83988      -498.748               
   131 r.135                 21.9778       8.13265               
   132 r.136                -21.9778       -492.82               
   133 r.137                -495.558      -496.541               
   134 r.138                 4.44205      -485.792               
   135 r.139                -465.528      -496.541               
   136 r.140                 34.4721      -485.792               
   137 r.141                 498.245       1.20322               
   138 r.142                -498.245      -498.748               
   139 r.143                 13.8452       6.08127               
   140 r.144                -13.8452       -492.82               
   141 r.145                 8.72705       3.23805               
   142 r.146                -8.72705      -498.748               
   143 r.147                 13.8452       13.8452               
   144 r.148                -13.8452       -492.82               
   145 r.149                 -487.97      -492.412               
   146 r.150                -480.771      -485.213               
   147 r.151                 -457.94      -492.412               
   148 r.152                -450.741      -485.213               
   149 r.153                -494.555      -496.177               
   150 r.154                -24.5854      -487.678               
   151 r.155                -494.555      -496.177               
   152 r.156                -24.5854      -487.678               
   153 r.157                 498.797       1.62901               
   154 r.158                -498.797      -498.797               
   155 r.159                 42.8282       7.41456               
   156 r.160                -42.8282      -493.919               
   157 r.161                 3.59533       1.83988               
   158 r.162                -3.59533      -498.797               
   159 r.163                 8.13265       8.13265               
   160 r.164                -8.13265      -493.919               
   161 r.165                  6.1975       2.60217               
   162 r.166                 -6.1975      -498.797               
   163 r.167                  20.627       12.4943               
   164 r.168                 -20.627      -493.919               
   165 r.169                 1.75545       1.25219               
   166 r.170                -1.75545      -498.797               
   167 r.171                 486.155       7.18046               
   168 r.172                -486.155      -493.919               
   169 r.173                -489.518      -489.518               
   170 r.174                -14.4295      -471.666               
   171 r.175                -475.088      -489.518               
   172 r.176                       0      -471.666               
   173 r.177                -486.214      -492.412               
   174 r.178                -479.016      -485.213               
   175 r.179                -471.785      -492.412               
   176 r.180                -464.586      -485.213               
   177 r.181                -496.311      -497.083               
   178 r.182                -10.7403      -490.491               
   179 r.183                -496.311      -497.083               
   180 r.184                -10.7403      -490.491               
   181 r.185                -488.314      -489.518               
   182 r.186                -13.2263      -471.666               
   183 r.187                -17.9162      -489.518               
   184 r.188                 457.172      -471.666               
   185 r.189                 493.113       1.83988               
   186 r.190                -493.113      -496.762               
   187 r.191                 8.13265       8.13265               
   188 r.192                -8.13265      -486.155               
   189 r.193                 495.715       2.60217               
   190 r.194                -495.715      -496.762               
   191 r.195                  20.627       12.4943               
   192 r.196                 -20.627      -486.155               
   193 r.197                 491.273       1.25219               
   194 r.198                -491.273      -496.762               
   195 r.199                 486.155       7.18046               
   196 r.200                -486.155      -486.155               
   197 r.201                -489.518      -489.518               
   198 r.202                -14.4295      -471.666               
   199 r.203                -475.088      -489.518               
   200 r.204                       0      -471.666               
   201 r.205                 3.30333       3.30333               
   202 r.206                -3.30333      -496.762               
   203 r.207                 35.4136        6.2166               
   204 r.208                -35.4136      -486.155               
   205 r.209                 485.011       1.62901               
   206 r.210                -485.011      -496.697               
   207 r.211                 7.41456       7.41456               
   208 r.212                -7.41456      -493.783               
   209 r.213                 -489.81      -492.412               
   210 r.214                -482.611      -485.213               
   211 r.215                -479.917      -492.412               
   212 r.216                -472.719      -485.213               
   213 r.217                -492.412      -492.412               
   214 r.218                -485.213      -485.213               
   215 r.219                -492.412      -492.412               
   216 r.220                -485.213      -485.213               
   217 r.221                 -487.97      -492.412               
   218 r.222                -480.771      -485.213               
   219 r.223                 -457.94      -492.412               
   220 r.224                -450.741      -485.213               
   221 r.225                -486.214      -492.412               
   222 r.226                -479.016      -485.213               
   223 r.227                -471.785      -492.412               
   224 r.228                -464.586      -485.213               
   225 r.229                 496.697       3.23805               
   226 r.230                -496.697      -496.697               
   227 r.231                 464.586       13.8452               
   228 r.232                -464.586      -493.783               
   229 r.233                -497.514      -497.514               
   230 r.234                -467.912      -490.871               
   231 r.235                -497.514      -497.514               
   232 r.236                -467.912      -490.871               
   233 r.237                -492.715      -497.303               
   234 r.238                -2.60761      -490.153               
   235 r.239                -492.715      -497.303               
   236 r.240                -2.60761      -490.153               
   237 r.241                -490.113      -496.541               
   238 r.242                 9.88673      -485.792               
   239 r.243                -490.113      -496.541               
   240 r.244                 9.88673      -485.792               
   241 r.245                -494.555      -496.177               
   242 r.246                -24.5854      -487.678               
   243 r.247                -494.555      -496.177               
   244 r.248                -24.5854      -487.678               
   245 r.249                -496.311      -497.083               
   246 r.250                -10.7403      -490.491               
   247 r.251                -496.311      -497.083               
   248 r.252                -10.7403      -490.491               

   No. Column name       Activity     Lower bound   Upper bound
------ ------------    ------------- ------------- -------------
     1 tt                    17.5794             0               
     2 s_1_1        *              1             0             1 
     3 t_1_1                  14.989             0               
     4 s_1_6        *              1             0             1 
     5 s_2_1        *              0             0             1 
     6 t_2_1                 485.387             0               
     7 s_2_6        *              0             0             1 
     8 s_1_2        *              1             0             1 
     9 t_1_2                 10.1905             0               
    10 s_1_7        *              1             0             1 
    11 s_2_2        *              0             0             1 
    12 t_2_2                 20.0827             0               
    13 s_2_7        *              0             0             1 
    14 s_1_3        *              1             0             1 
    15 t_1_3                 7.58832             0               
    16 s_2_3        *              0             0             1 
    17 t_2_3                 7.58832             0               
    18 s_1_4        *              1             0             1 
    19 t_1_4                 12.0304             0               
    20 s_2_4        *              0             0             1 
    21 t_2_4                 42.0605             0               
    22 s_1_5        *              1             0             1 
    23 t_1_5                 13.7858             0               
    24 s_2_5        *              0             0             1 
    25 t_2_5                 28.2153             0               
    26 t_1_6                 3.30333             0               
    27 t_2_6                 28.2153             0               
    28 t_1_7                       0             0               
    29 t_2_7                 492.802             0               
    30 s_1_8        *              1             0             1 
    31 t_1_8                 17.4751             0               
    32 s_2_8        *              0             0             1 
    33 t_2_8                 17.4751             0               
    34 u_1_1_2      *              0             0             1 
    35 u_2_1_2      *              0             0             1 
    36 u_1_1_3      *              0             0             1 
    37 u_2_1_3      *              0             0             1 
    38 u_1_1_4      *              0             0             1 
    39 u_2_1_4      *              0             0             1 
    40 u_1_1_5      *              0             0             1 
    41 u_2_1_5      *              0             0             1 
    42 u_1_1_7      *              0             0             1 
    43 u_2_1_7      *              1             0             1 
    44 u_1_2_1      *              1             0             1 
    45 u_2_2_1      *              1             0             1 
    46 u_1_2_3      *              0             0             1 
    47 u_2_2_3      *              0             0             1 
    48 u_1_2_4      *              1             0             1 
    49 u_2_2_4      *              1             0             1 
    50 u_1_2_5      *              1             0             1 
    51 u_2_2_5      *              1             0             1 
    52 u_1_2_6      *              0             0             1 
    53 u_2_2_6      *              1             0             1 
    54 u_1_3_1      *              1             0             1 
    55 u_2_3_1      *              1             0             1 
    56 u_1_3_2      *              1             0             1 
    57 u_2_3_2      *              1             0             1 
    58 u_1_3_5      *              1             0             1 
    59 u_2_3_5      *              1             0             1 
    60 u_1_3_6      *              0             0             1 
    61 u_2_3_6      *              1             0             1 
    62 u_1_4_1      *              1             0             1 
    63 u_2_4_1      *              1             0             1 
    64 u_1_4_2      *              0             0             1 
    65 u_2_4_2      *              0             0             1 
    66 u_1_4_5      *              1             0             1 
    67 u_2_4_5      *              0             0             1 
    68 u_1_4_6      *              0             0             1 
    69 u_2_4_6      *              0             0             1 
    70 u_1_5_1      *              1             0             1 
    71 u_2_5_1      *              1             0             1 
    72 u_1_5_2      *              0             0             1 
    73 u_2_5_2      *              0             0             1 
    74 u_1_5_3      *              0             0             1 
    75 u_2_5_3      *              0             0             1 
    76 u_1_5_4      *              0             0             1 
    77 u_2_5_4      *              1             0             1 
    78 u_1_6_2      *              1             0             1 
    79 u_2_6_2      *              0             0             1 
    80 u_1_6_3      *              1             0             1 
    81 u_2_6_3      *              0             0             1 
    82 u_1_6_4      *              1             0             1 
    83 u_2_6_4      *              1             0             1 
    84 u_1_6_7      *              0             0             1 
    85 u_2_6_7      *              1             0             1 
    86 u_1_7_1      *              1             0             1 
    87 u_2_7_1      *              0             0             1 
    88 u_1_7_6      *              1             0             1 
    89 u_2_7_6      *              0             0             1 

Integer feasibility conditions:

KKT.PE: max.abs.err = 1.14e-13 on row 2
        max.rel.err = 1.11e-16 on row 77
        High quality

KKT.PB: max.abs.err = 1.93e-14 on row 53
        max.rel.err = 8.77e-15 on row 53
        High quality

End of output
